; benchmark generated from python API
(set-info :status unknown)
(declare-fun x_month () Int)
(declare-fun x_day () Int)
(declare-fun x_year () Int)
(declare-fun y_month () Int)
(declare-fun y_day () Int)
(declare-fun y_year () Int)
(assert
 (>= x_month 1))
(assert
 (<= x_month 12))
(assert
 (>= x_day 1))
(assert
 (<= x_day 31))
(assert
 (let (($x211 (<= x_day 28)))
 (let (($x209 (<= x_day 29)))
 (let (($x206 (= (mod x_year 400) 0)))
 (let (($x203 (= (mod x_year 4) 0)))
 (let (($x212 (ite (or (and $x203 (and (distinct (mod x_year 100) 0) true)) $x206) $x209 $x211)))
 (let (($x201 (= x_month 2)))
 (ite $x201 $x212 true))))))))
(assert
 (let (($x225 (<= x_day 30)))
 (let (($x228 (or (= x_month 4) (= x_month 6) (= x_month 9) (= x_month 11))))
 (ite $x228 $x225 true))))
(assert
 (>= y_month 1))
(assert
 (<= y_month 12))
(assert
 (>= y_day 1))
(assert
 (<= y_day 31))
(assert
 (let (($x248 (<= y_day 28)))
 (let (($x245 (<= y_day 29)))
 (let (($x239 (= (mod y_year 400) 0)))
 (let (($x224 (= (mod y_year 4) 0)))
 (let (($x249 (ite (or (and $x224 (and (distinct (mod y_year 100) 0) true)) $x239) $x245 $x248)))
 (let (($x218 (= y_month 2)))
 (ite $x218 $x249 true))))))))
(assert
 (let (($x182 (<= y_day 30)))
 (let (($x181 (or (= y_month 4) (= y_month 6) (= y_month 9) (= y_month 11))))
 (ite $x181 $x182 true))))
(assert
 (let (($x189 (= x_day 31)))
 (let (($x187 (= x_month 1)))
 (let (($x186 (= x_year 2020)))
 (and $x186 $x187 $x189)))))
(assert
 (let (($x252 (= y_day 31)))
 (let (($x251 (= y_month 1)))
 (let (($x250 (= y_year 2019)))
 (and $x250 $x251 $x252)))))
(assert
 (let (($x29 (or (and (= (mod 2000 4) 0) (and (distinct (mod 2000 100) 0) true)) (= (mod 2000 400) 0))))
 (let ((?x36 (ite (= 3 2) (ite $x29 31 31) (ite (= 3 1) (ite $x29 0 0) 0))))
 (let ((?x46 (ite (= 3 4) (ite $x29 91 90) (ite (= 3 3) (ite $x29 60 59) ?x36))))
 (let ((?x58 (ite (= 3 6) (ite $x29 152 151) (ite (= 3 5) (ite $x29 121 120) ?x46))))
 (let ((?x70 (ite (= 3 8) (ite $x29 213 212) (ite (= 3 7) (ite $x29 182 181) ?x58))))
 (let ((?x82 (ite (= 3 10) (ite $x29 274 273) (ite (= 3 9) (ite $x29 244 243) ?x70))))
 (let ((?x94 (ite (= 3 12) (ite $x29 335 334) (ite (= 3 11) (ite $x29 305 304) ?x82))))
 (let ((?x16 (- (+ (* 365 (- 2000 1)) (div (- 2000 1) 4)) (div (- 2000 1) 100))))
 (let ((?x97 (+ (+ (+ ?x16 (div (- 2000 1) 400)) ?x94) (- 1 1))))
 (let ((?x285 (mod 0 146097)))
 (let ((?x273 (+ (mod (- (+ x_month (+ (* 0 12) 1)) 1) 12) 1)))
 (let ((?x270 (ite (or (= ?x273 4) (= ?x273 6) (= ?x273 9) (= ?x273 11)) 30 31)))
 (let ((?x272 (+ 0 (div (- (+ x_month (+ (* 0 12) 1)) 1) 12))))
 (let ((?x262 (+ x_year ?x272)))
 (let (($x268 (or (and (= (mod ?x262 4) 0) (and (distinct (mod ?x262 100) 0) true)) (= (mod ?x262 400) 0))))
 (let ((?x278 (ite (= ?x273 2) (ite $x268 29 28) ?x270)))
 (let ((?x282 (ite (< x_day 1) 1 (ite (> x_day ?x278) ?x278 x_day))))
 (let (($x304 (and (= (mod (+ ?x262 (* (div 0 146097) 400)) 4) 0) (and (distinct (mod (+ ?x262 (* (div 0 146097) 400)) 100) 0) true))))
 (let (($x288 (or $x304 (= (mod (+ ?x262 (* (div 0 146097) 400)) 400) 0))))
 (let ((?x301 (ite (= 2 ?x273) (ite $x288 31 31) (ite (= 1 ?x273) (ite $x288 0 0) 0))))
 (let ((?x313 (ite (= 4 ?x273) (ite $x288 91 90) (ite (= 3 ?x273) (ite $x288 60 59) ?x301))))
 (let ((?x352 (ite (= 6 ?x273) (ite $x288 152 151) (ite (= 5 ?x273) (ite $x288 121 120) ?x313))))
 (let ((?x343 (ite (= 8 ?x273) (ite $x288 213 212) (ite (= 7 ?x273) (ite $x288 182 181) ?x352))))
 (let ((?x334 (ite (= 10 ?x273) (ite $x288 274 273) (ite (= 9 ?x273) (ite $x288 244 243) ?x343))))
 (let ((?x325 (ite (= 12 ?x273) (ite $x288 335 334) (ite (= 11 ?x273) (ite $x288 305 304) ?x334))))
 (let ((?x314 (+ (* 365 (- (+ ?x262 (* (div 0 146097) 400)) 1)) (div (- (+ ?x262 (* (div 0 146097) 400)) 1) 4))))
 (let ((?x310 (+ (- ?x314 (div (- (+ ?x262 (* (div 0 146097) 400)) 1) 100)) (div (- (+ ?x262 (* (div 0 146097) 400)) 1) 400))))
 (let ((?x321 (+ (+ (- (+ (+ ?x310 ?x325) (- ?x282 1)) ?x97) ?x285) ?x97)))
 (let ((?x333 (mod ?x321 146097)))
 (let ((?x336 (div ?x333 36524)))
 (let ((?x342 (ite (<= 4 ?x336) 3 ?x336)))
 (let ((?x348 (- ?x333 (* ?x342 36524))))
 (let ((?x354 (mod ?x348 1461)))
 (let ((?x357 (div ?x354 365)))
 (let ((?x359 (ite (<= 4 ?x357) 3 ?x357)))
 (let ((?x152 (+ (+ (* (div ?x321 146097) 400) (* ?x342 100)) (* (div ?x348 1461) 4))))
 (let ((?x125 (+ (+ ?x152 ?x359) 1)))
 (let (($x135 (or (and (= (mod ?x125 4) 0) (and (distinct (mod ?x125 100) 0) true)) (= (mod ?x125 400) 0))))
 (let ((?x146 (- ?x354 (* ?x359 365))))
 (let ((?x137 (ite $x135 31 31)))
 (let (($x370 (>= ?x146 ?x137)))
 (let ((?x396 (ite $x370 (+ (- ?x146 ?x137) 1) (+ (- ?x146 (ite $x135 0 0)) 1))))
 (let ((?x122 (ite $x135 60 59)))
 (let (($x375 (>= ?x146 ?x122)))
 (let ((?x121 (ite $x135 91 90)))
 (let (($x377 (>= ?x146 ?x121)))
 (let ((?x362 (ite $x377 (+ (- ?x146 ?x121) 1) (ite $x375 (+ (- ?x146 ?x122) 1) ?x396))))
 (let ((?x120 (ite $x135 121 120)))
 (let (($x379 (>= ?x146 ?x120)))
 (let ((?x102 (ite $x135 152 151)))
 (let (($x381 (>= ?x146 ?x102)))
 (let ((?x369 (ite $x381 (+ (- ?x146 ?x102) 1) (ite $x379 (+ (- ?x146 ?x120) 1) ?x362))))
 (let ((?x364 (ite $x135 182 181)))
 (let (($x383 (>= ?x146 ?x364)))
 (let ((?x365 (ite $x135 213 212)))
 (let (($x385 (>= ?x146 ?x365)))
 (let ((?x142 (ite $x385 (+ (- ?x146 ?x365) 1) (ite $x383 (+ (- ?x146 ?x364) 1) ?x369))))
 (let ((?x366 (ite $x135 244 243)))
 (let (($x387 (>= ?x146 ?x366)))
 (let ((?x367 (ite $x135 274 273)))
 (let (($x389 (>= ?x146 ?x367)))
 (let ((?x118 (ite $x389 (+ (- ?x146 ?x367) 1) (ite $x387 (+ (- ?x146 ?x366) 1) ?x142))))
 (let ((?x361 (ite $x135 305 304)))
 (let (($x393 (>= ?x146 ?x361)))
 (let ((?x368 (ite $x135 335 334)))
 (let (($x395 (>= ?x146 ?x368)))
 (let ((?x111 (ite $x395 (+ (- ?x146 ?x368) 1) (ite $x393 (+ (- ?x146 ?x361) 1) ?x118))))
 (let (($x283 (= 0 0)))
 (let ((?x380 (ite $x379 5 (ite $x377 4 (ite $x375 3 (ite $x370 2 1))))))
 (let ((?x388 (ite $x387 9 (ite $x385 8 (ite $x383 7 (ite $x381 6 ?x380))))))
 (let (($x254 (= (ite $x283 ?x273 (ite $x395 12 (ite $x393 11 (ite $x389 10 ?x388)))) 2)))
 (and (= (ite $x283 ?x262 ?x125) 2020) $x254 (= (ite $x283 ?x282 ?x111) 29))))))))))))))))))))))))))))))))))))))))))))))))))))))))))))))))))))))))))
(assert
 (let (($x29 (or (and (= (mod 2000 4) 0) (and (distinct (mod 2000 100) 0) true)) (= (mod 2000 400) 0))))
(let ((?x36 (ite (= 3 2) (ite $x29 31 31) (ite (= 3 1) (ite $x29 0 0) 0))))
(let ((?x46 (ite (= 3 4) (ite $x29 91 90) (ite (= 3 3) (ite $x29 60 59) ?x36))))
(let ((?x58 (ite (= 3 6) (ite $x29 152 151) (ite (= 3 5) (ite $x29 121 120) ?x46))))
(let ((?x70 (ite (= 3 8) (ite $x29 213 212) (ite (= 3 7) (ite $x29 182 181) ?x58))))
(let ((?x82 (ite (= 3 10) (ite $x29 274 273) (ite (= 3 9) (ite $x29 244 243) ?x70))))
(let ((?x94 (ite (= 3 12) (ite $x29 335 334) (ite (= 3 11) (ite $x29 305 304) ?x82))))
(let ((?x16 (- (+ (* 365 (- 2000 1)) (div (- 2000 1) 4)) (div (- 2000 1) 100))))
(let ((?x97 (+ (+ (+ ?x16 (div (- 2000 1) 400)) ?x94) (- 1 1))))
(let ((?x285 (mod 0 146097)))
(let ((?x451 (+ (mod (- (+ y_month (+ (* 0 12) 1)) 1) 12) 1)))
(let ((?x468 (ite (or (= ?x451 4) (= ?x451 6) (= ?x451 9) (= ?x451 11)) 30 31)))
(let ((?x450 (+ 0 (div (- (+ y_month (+ (* 0 12) 1)) 1) 12))))
(let ((?x452 (+ y_year ?x450)))
(let (($x461 (or (and (= (mod ?x452 4) 0) (and (distinct (mod ?x452 100) 0) true)) (= (mod ?x452 400) 0))))
(let ((?x469 (ite (= ?x451 2) (ite $x461 29 28) ?x468)))
(let ((?x473 (ite (< y_day 1) 1 (ite (> y_day ?x469) ?x469 y_day))))
(let (($x488 (and (= (mod (+ ?x452 (* (div 0 146097) 400)) 4) 0) (and (distinct (mod (+ ?x452 (* (div 0 146097) 400)) 100) 0) true))))
(let (($x491 (or $x488 (= (mod (+ ?x452 (* (div 0 146097) 400)) 400) 0))))
(let ((?x496 (ite (= 2 ?x451) (ite $x491 31 31) (ite (= 1 ?x451) (ite $x491 0 0) 0))))
(let ((?x502 (ite (= 4 ?x451) (ite $x491 91 90) (ite (= 3 ?x451) (ite $x491 60 59) ?x496))))
(let ((?x508 (ite (= 6 ?x451) (ite $x491 152 151) (ite (= 5 ?x451) (ite $x491 121 120) ?x502))))
(let ((?x514 (ite (= 8 ?x451) (ite $x491 213 212) (ite (= 7 ?x451) (ite $x491 182 181) ?x508))))
(let ((?x520 (ite (= 10 ?x451) (ite $x491 274 273) (ite (= 9 ?x451) (ite $x491 244 243) ?x514))))
(let ((?x526 (ite (= 12 ?x451) (ite $x491 335 334) (ite (= 11 ?x451) (ite $x491 305 304) ?x520))))
(let ((?x478 (+ (* 365 (- (+ ?x452 (* (div 0 146097) 400)) 1)) (div (- (+ ?x452 (* (div 0 146097) 400)) 1) 4))))
(let ((?x482 (+ (- ?x478 (div (- (+ ?x452 (* (div 0 146097) 400)) 1) 100)) (div (- (+ ?x452 (* (div 0 146097) 400)) 1) 400))))
(let ((?x532 (+ (+ (- (+ (+ ?x482 ?x526) (- ?x473 1)) ?x97) ?x285) ?x97)))
(let ((?x534 (mod ?x532 146097)))
(let ((?x535 (div ?x534 36524)))
(let ((?x537 (ite (<= 4 ?x535) 3 ?x535)))
(let ((?x539 (- ?x534 (* ?x537 36524))))
(let ((?x541 (mod ?x539 1461)))
(let ((?x542 (div ?x541 365)))
(let ((?x544 (ite (<= 4 ?x542) 3 ?x542)))
(let ((?x551 (+ (+ (* (div ?x532 146097) 400) (* ?x537 100)) (* (div ?x539 1461) 4))))
(let ((?x553 (+ (+ ?x551 ?x544) 1)))
(let (($x561 (or (and (= (mod ?x553 4) 0) (and (distinct (mod ?x553 100) 0) true)) (= (mod ?x553 400) 0))))
(let ((?x546 (- ?x541 (* ?x544 365))))
(let ((?x563 (ite $x561 31 31)))
(let (($x574 (>= ?x546 ?x563)))
(let ((?x600 (ite $x574 (+ (- ?x546 ?x563) 1) (+ (- ?x546 (ite $x561 0 0)) 1))))
(let ((?x564 (ite $x561 60 59)))
(let (($x576 (>= ?x546 ?x564)))
(let ((?x565 (ite $x561 91 90)))
(let (($x578 (>= ?x546 ?x565)))
(let ((?x606 (ite $x578 (+ (- ?x546 ?x565) 1) (ite $x576 (+ (- ?x546 ?x564) 1) ?x600))))
(let ((?x566 (ite $x561 121 120)))
(let (($x580 (>= ?x546 ?x566)))
(let ((?x567 (ite $x561 152 151)))
(let (($x582 (>= ?x546 ?x567)))
(let ((?x612 (ite $x582 (+ (- ?x546 ?x567) 1) (ite $x580 (+ (- ?x546 ?x566) 1) ?x606))))
(let ((?x568 (ite $x561 182 181)))
(let (($x584 (>= ?x546 ?x568)))
(let ((?x569 (ite $x561 213 212)))
(let (($x586 (>= ?x546 ?x569)))
(let ((?x618 (ite $x586 (+ (- ?x546 ?x569) 1) (ite $x584 (+ (- ?x546 ?x568) 1) ?x612))))
(let ((?x570 (ite $x561 244 243)))
(let (($x588 (>= ?x546 ?x570)))
(let ((?x571 (ite $x561 274 273)))
(let (($x590 (>= ?x546 ?x571)))
(let ((?x624 (ite $x590 (+ (- ?x546 ?x571) 1) (ite $x588 (+ (- ?x546 ?x570) 1) ?x618))))
(let ((?x572 (ite $x561 305 304)))
(let (($x592 (>= ?x546 ?x572)))
(let ((?x573 (ite $x561 335 334)))
(let (($x594 (>= ?x546 ?x573)))
(let ((?x630 (ite $x594 (+ (- ?x546 ?x573) 1) (ite $x592 (+ (- ?x546 ?x572) 1) ?x624))))
(let (($x283 (= 0 0)))
(let ((?x581 (ite $x580 5 (ite $x578 4 (ite $x576 3 (ite $x574 2 1))))))
(let ((?x589 (ite $x588 9 (ite $x586 8 (ite $x584 7 (ite $x582 6 ?x581))))))
(let (($x444 (= (ite $x283 ?x451 (ite $x594 12 (ite $x592 11 (ite $x590 10 ?x589)))) 2)))
(and (= (ite $x283 ?x452 ?x553) 2019) $x444 (= (ite $x283 ?x473 ?x630) 28))))))))))))))))))))))))))))))))))))))))))))))))))))))))))))))))))))))))))
(check-sat)
